language Essence 1.3

letting bot_end be [288, 160, 264, 289, 77, 247, 307, 209, 108, 98, 13, 261, 219, 191; int(1..14)]
letting bot_start be [102, 2, 127, 105, 289, 23, 43, 91, 253, 223, 271, 109, 118, 35; int(1..14)]
letting buffer_col be 2
letting buffer_row be 2
letting corridor_size be 1
letting n_shelves_col be 1
letting n_shelves_row be 20
letting shelf_col_size be 2
letting shelf_row_size be 1
